20
1 0 5
2 0 4
2 1 3
3 0 1
3 1 3
3 2 1
4 0 3
4 1 1
4 2 1
4 3 2
5 0 5
5 1 4
5 2 2
5 3 3
5 4 3
6 0 2
6 1 3
6 2 4
6 3 2
6 4 3
6 5 4
7 0 5
7 1 2
7 2 3
7 3 2
7 4 3
7 5 2
7 6 3
8 0 4
8 1 2
8 2 3
8 3 1
8 4 4
8 5 4
8 6 2
8 7 3
9 0 1
9 1 5
9 2 5
9 3 1
9 4 5
9 5 2
9 6 3
9 7 5
9 8 2
10 0 5
10 1 4
10 2 1
10 3 4
10 4 5
10 5 2
10 6 2
10 7 1
10 8 2
10 9 2
11 0 4
11 1 1
11 2 2
11 3 2
11 4 1
11 5 1
11 6 1
11 7 1
11 8 2
11 9 5
11 10 2
12 0 1
12 1 1
12 2 1
12 3 3
12 4 1
12 5 3
12 6 1
12 7 4
12 8 3
12 9 2
12 10 2
12 11 2
13 0 2
13 1 5
13 2 2
13 3 3
13 4 3
13 5 2
13 6 2
13 7 4
13 8 5
13 9 4
13 10 1
13 11 2
13 12 4
14 0 4
14 1 1
14 2 3
14 3 5
14 4 2
14 5 4
14 6 4
14 7 1
14 8 2
14 9 3
14 10 1
14 11 2
14 12 4
14 13 5
15 0 1
15 1 3
15 2 5
15 3 3
15 4 2
15 5 4
15 6 2
15 7 1
15 8 4
15 9 4
15 10 4
15 11 3
15 12 5
15 13 1
15 14 4
16 0 1
16 1 3
16 2 4
16 3 4
16 4 2
16 5 2
16 6 1
16 7 4
16 8 4
16 9 2
16 10 4
16 11 1
16 12 1
16 13 3
16 14 4
16 15 4
17 0 2
17 1 2
17 2 3
17 3 3
17 4 3
17 5 4
17 6 5
17 7 3
17 8 4
17 9 1
17 10 4
17 11 1
17 12 3
17 13 3
17 14 3
17 15 4
17 16 4
18 0 2
18 1 1
18 2 3
18 3 2
18 4 3
18 5 3
18 6 5
18 7 4
18 8 1
18 9 3
18 10 5
18 11 4
18 12 3
18 13 3
18 14 3
18 15 5
18 16 2
18 17 1
19 0 4
19 1 4
19 2 2
19 3 3
19 4 3
19 5 4
19 6 2
19 7 2
19 8 1
19 9 2
19 10 2
19 11 5
19 12 4
19 13 4
19 14 1
19 15 4
19 16 3
19 17 5
19 18 2
